(set-info :category "industrial")
(set-info :status sat)
(declare-fun x00 () (_ BitVec 8))
(declare-fun x02 () (_ BitVec 8))
(declare-fun x04 () (_ BitVec 8))
(declare-fun x05 () (_ BitVec 8))
(declare-fun x06 () (_ BitVec 8))
(declare-fun x08 () (_ BitVec 8))
(declare-fun x10 () (_ BitVec 8))
(declare-fun x11 () (_ BitVec 8))
(declare-fun x13 () (_ BitVec 8))
(declare-fun x14 () (_ BitVec 8))
(declare-fun x17 () (_ BitVec 8))
(declare-fun x20 () (_ BitVec 8))
(declare-fun x21 () (_ BitVec 8))
(declare-fun x24 () (_ BitVec 8))
(declare-fun x26 () (_ BitVec 8))
(declare-fun x32 () (_ BitVec 8))
(declare-fun x33 () (_ BitVec 8))
(declare-fun x35 () (_ BitVec 8))
(declare-fun x36 () (_ BitVec 8))
(declare-fun x37 () (_ BitVec 8))
(declare-fun x38 () (_ BitVec 8))
(declare-fun x40 () (_ BitVec 8))
(declare-fun x42 () (_ BitVec 8))
(declare-fun x45 () (_ BitVec 8))
(declare-fun x46 () (_ BitVec 8))
(declare-fun x47 () (_ BitVec 8))
(declare-fun x50 () (_ BitVec 8))
(declare-fun x51 () (_ BitVec 8))
(declare-fun x53 () (_ BitVec 8))
(declare-fun x55 () (_ BitVec 8))
(declare-fun x56 () (_ BitVec 8))
(declare-fun x58 () (_ BitVec 8))
(declare-fun x60 () (_ BitVec 8))
(declare-fun x61 () (_ BitVec 8))
(declare-fun x63 () (_ BitVec 8))
(declare-fun x64 () (_ BitVec 8))
(declare-fun x65 () (_ BitVec 8))
(declare-fun x66 () (_ BitVec 8))
(declare-fun x67 () (_ BitVec 8))
(declare-fun x71 () (_ BitVec 8))
(declare-fun x72 () (_ BitVec 8))
(declare-fun x74 () (_ BitVec 8))
(declare-fun x78 () (_ BitVec 8))
(declare-fun x81 () (_ BitVec 8))
(declare-fun x83 () (_ BitVec 8))
(declare-fun x85 () (_ BitVec 8))
(declare-fun x87 () (_ BitVec 8))
(declare-fun x88 () (_ BitVec 8))
(assert (bvult x00 (_ bv9 8)))
(assert (bvult x02 (_ bv9 8)))
(assert (bvult x04 (_ bv9 8)))
(assert (bvult x05 (_ bv9 8)))
(assert (bvult x06 (_ bv9 8)))
(assert (bvult x08 (_ bv9 8)))
(assert (bvult x10 (_ bv9 8)))
(assert (bvult x11 (_ bv9 8)))
(assert (bvult x13 (_ bv9 8)))
(assert (bvult x14 (_ bv9 8)))
(assert (bvult x17 (_ bv9 8)))
(assert (bvult x20 (_ bv9 8)))
(assert (bvult x21 (_ bv9 8)))
(assert (bvult x24 (_ bv9 8)))
(assert (bvult x26 (_ bv9 8)))
(assert (bvult x32 (_ bv9 8)))
(assert (bvult x33 (_ bv9 8)))
(assert (bvult x35 (_ bv9 8)))
(assert (bvult x36 (_ bv9 8)))
(assert (bvult x37 (_ bv9 8)))
(assert (bvult x38 (_ bv9 8)))
(assert (bvult x40 (_ bv9 8)))
(assert (bvult x42 (_ bv9 8)))
(assert (bvult x45 (_ bv9 8)))
(assert (bvult x46 (_ bv9 8)))
(assert (bvult x47 (_ bv9 8)))
(assert (bvult x50 (_ bv9 8)))
(assert (bvult x51 (_ bv9 8)))
(assert (bvult x53 (_ bv9 8)))
(assert (bvult x55 (_ bv9 8)))
(assert (bvult x56 (_ bv9 8)))
(assert (bvult x58 (_ bv9 8)))
(assert (bvult x60 (_ bv9 8)))
(assert (bvult x61 (_ bv9 8)))
(assert (bvult x63 (_ bv9 8)))
(assert (bvult x64 (_ bv9 8)))
(assert (bvult x65 (_ bv9 8)))
(assert (bvult x66 (_ bv9 8)))
(assert (bvult x67 (_ bv9 8)))
(assert (bvult x71 (_ bv9 8)))
(assert (bvult x72 (_ bv9 8)))
(assert (bvult x74 (_ bv9 8)))
(assert (bvult x78 (_ bv9 8)))
(assert (bvult x81 (_ bv9 8)))
(assert (bvult x83 (_ bv9 8)))
(assert (bvult x85 (_ bv9 8)))
(assert (bvult x87 (_ bv9 8)))
(assert (bvult x88 (_ bv9 8)))
(assert (not (= x00 (_ bv1 8))))
(assert (not (= x00 x02)))
(assert (not (= x00 (_ bv2 8))))
(assert (not (= x00 x04)))
(assert (not (= x00 x05)))
(assert (not (= x00 x06)))
(assert (not (= x00 (_ bv3 8))))
(assert (not (= x00 x08)))
(assert (not (= (_ bv1 8) x02)))
(assert (not (= (_ bv1 8) (_ bv2 8))))
(assert (not (= (_ bv1 8) x04)))
(assert (not (= (_ bv1 8) x05)))
(assert (not (= (_ bv1 8) x06)))
(assert (not (= (_ bv1 8) (_ bv3 8))))
(assert (not (= (_ bv1 8) x08)))
(assert (not (= x02 (_ bv2 8))))
(assert (not (= x02 x04)))
(assert (not (= x02 x05)))
(assert (not (= x02 x06)))
(assert (not (= x02 (_ bv3 8))))
(assert (not (= x02 x08)))
(assert (not (= (_ bv2 8) x04)))
(assert (not (= (_ bv2 8) x05)))
(assert (not (= (_ bv2 8) x06)))
(assert (not (= (_ bv2 8) (_ bv3 8))))
(assert (not (= (_ bv2 8) x08)))
(assert (not (= x04 x05)))
(assert (not (= x04 x06)))
(assert (not (= x04 (_ bv3 8))))
(assert (not (= x04 x08)))
(assert (not (= x05 x06)))
(assert (not (= x05 (_ bv3 8))))
(assert (not (= x05 x08)))
(assert (not (= x06 (_ bv3 8))))
(assert (not (= x06 x08)))
(assert (not (= (_ bv3 8) x08)))
(assert (not (= x10 x11)))
(assert (not (= x10 (_ bv8 8))))
(assert (not (= x10 x13)))
(assert (not (= x10 x14)))
(assert (not (= x10 (_ bv9 8))))
(assert (not (= x10 (_ bv6 8))))
(assert (not (= x10 x17)))
(assert (not (= x10 (_ bv2 8))))
(assert (not (= x11 (_ bv8 8))))
(assert (not (= x11 x13)))
(assert (not (= x11 x14)))
(assert (not (= x11 (_ bv9 8))))
(assert (not (= x11 (_ bv6 8))))
(assert (not (= x11 x17)))
(assert (not (= x11 (_ bv2 8))))
(assert (not (= (_ bv8 8) x13)))
(assert (not (= (_ bv8 8) x14)))
(assert (not (= (_ bv8 8) (_ bv9 8))))
(assert (not (= (_ bv8 8) (_ bv6 8))))
(assert (not (= (_ bv8 8) x17)))
(assert (not (= (_ bv8 8) (_ bv2 8))))
(assert (not (= x13 x14)))
(assert (not (= x13 (_ bv9 8))))
(assert (not (= x13 (_ bv6 8))))
(assert (not (= x13 x17)))
(assert (not (= x13 (_ bv2 8))))
(assert (not (= x14 (_ bv9 8))))
(assert (not (= x14 (_ bv6 8))))
(assert (not (= x14 x17)))
(assert (not (= x14 (_ bv2 8))))
(assert (not (= (_ bv9 8) (_ bv6 8))))
(assert (not (= (_ bv9 8) x17)))
(assert (not (= (_ bv9 8) (_ bv2 8))))
(assert (not (= (_ bv6 8) x17)))
(assert (not (= (_ bv6 8) (_ bv2 8))))
(assert (not (= x17 (_ bv2 8))))
(assert (not (= x20 x21)))
(assert (not (= x20 (_ bv9 8))))
(assert (not (= x20 (_ bv6 8))))
(assert (not (= x20 x24)))
(assert (not (= x20 (_ bv4 8))))
(assert (not (= x20 x26)))
(assert (not (= x20 (_ bv5 8))))
(assert (not (= x20 (_ bv7 8))))
(assert (not (= x21 (_ bv9 8))))
(assert (not (= x21 (_ bv6 8))))
(assert (not (= x21 x24)))
(assert (not (= x21 (_ bv4 8))))
(assert (not (= x21 x26)))
(assert (not (= x21 (_ bv5 8))))
(assert (not (= x21 (_ bv7 8))))
(assert (not (= (_ bv9 8) (_ bv6 8))))
(assert (not (= (_ bv9 8) x24)))
(assert (not (= (_ bv9 8) (_ bv4 8))))
(assert (not (= (_ bv9 8) x26)))
(assert (not (= (_ bv9 8) (_ bv5 8))))
(assert (not (= (_ bv9 8) (_ bv7 8))))
(assert (not (= (_ bv6 8) x24)))
(assert (not (= (_ bv6 8) (_ bv4 8))))
(assert (not (= (_ bv6 8) x26)))
(assert (not (= (_ bv6 8) (_ bv5 8))))
(assert (not (= (_ bv6 8) (_ bv7 8))))
(assert (not (= x24 (_ bv4 8))))
(assert (not (= x24 x26)))
(assert (not (= x24 (_ bv5 8))))
(assert (not (= x24 (_ bv7 8))))
(assert (not (= (_ bv4 8) x26)))
(assert (not (= (_ bv4 8) (_ bv5 8))))
(assert (not (= (_ bv4 8) (_ bv7 8))))
(assert (not (= x26 (_ bv5 8))))
(assert (not (= x26 (_ bv7 8))))
(assert (not (= (_ bv5 8) (_ bv7 8))))
(assert (not (= (_ bv5 8) (_ bv3 8))))
(assert (not (= (_ bv5 8) x32)))
(assert (not (= (_ bv5 8) x33)))
(assert (not (= (_ bv5 8) (_ bv4 8))))
(assert (not (= (_ bv5 8) x35)))
(assert (not (= (_ bv5 8) x36)))
(assert (not (= (_ bv5 8) x37)))
(assert (not (= (_ bv5 8) x38)))
(assert (not (= (_ bv3 8) x32)))
(assert (not (= (_ bv3 8) x33)))
(assert (not (= (_ bv3 8) (_ bv4 8))))
(assert (not (= (_ bv3 8) x35)))
(assert (not (= (_ bv3 8) x36)))
(assert (not (= (_ bv3 8) x37)))
(assert (not (= (_ bv3 8) x38)))
(assert (not (= x32 x33)))
(assert (not (= x32 (_ bv4 8))))
(assert (not (= x32 x35)))
(assert (not (= x32 x36)))
(assert (not (= x32 x37)))
(assert (not (= x32 x38)))
(assert (not (= x33 (_ bv4 8))))
(assert (not (= x33 x35)))
(assert (not (= x33 x36)))
(assert (not (= x33 x37)))
(assert (not (= x33 x38)))
(assert (not (= (_ bv4 8) x35)))
(assert (not (= (_ bv4 8) x36)))
(assert (not (= (_ bv4 8) x37)))
(assert (not (= (_ bv4 8) x38)))
(assert (not (= x35 x36)))
(assert (not (= x35 x37)))
(assert (not (= x35 x38)))
(assert (not (= x36 x37)))
(assert (not (= x36 x38)))
(assert (not (= x37 x38)))
(assert (not (= x40 (_ bv7 8))))
(assert (not (= x40 x42)))
(assert (not (= x40 (_ bv9 8))))
(assert (not (= x40 (_ bv2 8))))
(assert (not (= x40 x45)))
(assert (not (= x40 x46)))
(assert (not (= x40 x47)))
(assert (not (= x40 (_ bv6 8))))
(assert (not (= (_ bv7 8) x42)))
(assert (not (= (_ bv7 8) (_ bv9 8))))
(assert (not (= (_ bv7 8) (_ bv2 8))))
(assert (not (= (_ bv7 8) x45)))
(assert (not (= (_ bv7 8) x46)))
(assert (not (= (_ bv7 8) x47)))
(assert (not (= (_ bv7 8) (_ bv6 8))))
(assert (not (= x42 (_ bv9 8))))
(assert (not (= x42 (_ bv2 8))))
(assert (not (= x42 x45)))
(assert (not (= x42 x46)))
(assert (not (= x42 x47)))
(assert (not (= x42 (_ bv6 8))))
(assert (not (= (_ bv9 8) (_ bv2 8))))
(assert (not (= (_ bv9 8) x45)))
(assert (not (= (_ bv9 8) x46)))
(assert (not (= (_ bv9 8) x47)))
(assert (not (= (_ bv9 8) (_ bv6 8))))
(assert (not (= (_ bv2 8) x45)))
(assert (not (= (_ bv2 8) x46)))
(assert (not (= (_ bv2 8) x47)))
(assert (not (= (_ bv2 8) (_ bv6 8))))
(assert (not (= x45 x46)))
(assert (not (= x45 x47)))
(assert (not (= x45 (_ bv6 8))))
(assert (not (= x46 x47)))
(assert (not (= x46 (_ bv6 8))))
(assert (not (= x47 (_ bv6 8))))
(assert (not (= x50 x51)))
(assert (not (= x50 (_ bv4 8))))
(assert (not (= x50 x53)))
(assert (not (= x50 (_ bv3 8))))
(assert (not (= x50 x55)))
(assert (not (= x50 x56)))
(assert (not (= x50 (_ bv8 8))))
(assert (not (= x50 x58)))
(assert (not (= x51 (_ bv4 8))))
(assert (not (= x51 x53)))
(assert (not (= x51 (_ bv3 8))))
(assert (not (= x51 x55)))
(assert (not (= x51 x56)))
(assert (not (= x51 (_ bv8 8))))
(assert (not (= x51 x58)))
(assert (not (= (_ bv4 8) x53)))
(assert (not (= (_ bv4 8) (_ bv3 8))))
(assert (not (= (_ bv4 8) x55)))
(assert (not (= (_ bv4 8) x56)))
(assert (not (= (_ bv4 8) (_ bv8 8))))
(assert (not (= (_ bv4 8) x58)))
(assert (not (= x53 (_ bv3 8))))
(assert (not (= x53 x55)))
(assert (not (= x53 x56)))
(assert (not (= x53 (_ bv8 8))))
(assert (not (= x53 x58)))
(assert (not (= (_ bv3 8) x55)))
(assert (not (= (_ bv3 8) x56)))
(assert (not (= (_ bv3 8) (_ bv8 8))))
(assert (not (= (_ bv3 8) x58)))
(assert (not (= x55 x56)))
(assert (not (= x55 (_ bv8 8))))
(assert (not (= x55 x58)))
(assert (not (= x56 (_ bv8 8))))
(assert (not (= x56 x58)))
(assert (not (= (_ bv8 8) x58)))
(assert (not (= x60 x61)))
(assert (not (= x60 (_ bv6 8))))
(assert (not (= x60 x63)))
(assert (not (= x60 x64)))
(assert (not (= x60 x65)))
(assert (not (= x60 x66)))
(assert (not (= x60 x67)))
(assert (not (= x60 (_ bv4 8))))
(assert (not (= x61 (_ bv6 8))))
(assert (not (= x61 x63)))
(assert (not (= x61 x64)))
(assert (not (= x61 x65)))
(assert (not (= x61 x66)))
(assert (not (= x61 x67)))
(assert (not (= x61 (_ bv4 8))))
(assert (not (= (_ bv6 8) x63)))
(assert (not (= (_ bv6 8) x64)))
(assert (not (= (_ bv6 8) x65)))
(assert (not (= (_ bv6 8) x66)))
(assert (not (= (_ bv6 8) x67)))
(assert (not (= (_ bv6 8) (_ bv4 8))))
(assert (not (= x63 x64)))
(assert (not (= x63 x65)))
(assert (not (= x63 x66)))
(assert (not (= x63 x67)))
(assert (not (= x63 (_ bv4 8))))
(assert (not (= x64 x65)))
(assert (not (= x64 x66)))
(assert (not (= x64 x67)))
(assert (not (= x64 (_ bv4 8))))
(assert (not (= x65 x66)))
(assert (not (= x65 x67)))
(assert (not (= x65 (_ bv4 8))))
(assert (not (= x66 x67)))
(assert (not (= x66 (_ bv4 8))))
(assert (not (= x67 (_ bv4 8))))
(assert (not (= (_ bv2 8) x71)))
(assert (not (= (_ bv2 8) x72)))
(assert (not (= (_ bv2 8) (_ bv5 8))))
(assert (not (= (_ bv2 8) x74)))
(assert (not (= (_ bv2 8) (_ bv1 8))))
(assert (not (= (_ bv2 8) (_ bv7 8))))
(assert (not (= (_ bv2 8) (_ bv9 8))))
(assert (not (= (_ bv2 8) x78)))
(assert (not (= x71 x72)))
(assert (not (= x71 (_ bv5 8))))
(assert (not (= x71 x74)))
(assert (not (= x71 (_ bv1 8))))
(assert (not (= x71 (_ bv7 8))))
(assert (not (= x71 (_ bv9 8))))
(assert (not (= x71 x78)))
(assert (not (= x72 (_ bv5 8))))
(assert (not (= x72 x74)))
(assert (not (= x72 (_ bv1 8))))
(assert (not (= x72 (_ bv7 8))))
(assert (not (= x72 (_ bv9 8))))
(assert (not (= x72 x78)))
(assert (not (= (_ bv5 8) x74)))
(assert (not (= (_ bv5 8) (_ bv1 8))))
(assert (not (= (_ bv5 8) (_ bv7 8))))
(assert (not (= (_ bv5 8) (_ bv9 8))))
(assert (not (= (_ bv5 8) x78)))
(assert (not (= x74 (_ bv1 8))))
(assert (not (= x74 (_ bv7 8))))
(assert (not (= x74 (_ bv9 8))))
(assert (not (= x74 x78)))
(assert (not (= (_ bv1 8) (_ bv7 8))))
(assert (not (= (_ bv1 8) (_ bv9 8))))
(assert (not (= (_ bv1 8) x78)))
(assert (not (= (_ bv7 8) (_ bv9 8))))
(assert (not (= (_ bv7 8) x78)))
(assert (not (= (_ bv9 8) x78)))
(assert (not (= (_ bv7 8) x81)))
(assert (not (= (_ bv7 8) (_ bv5 8))))
(assert (not (= (_ bv7 8) x83)))
(assert (not (= (_ bv7 8) (_ bv8 8))))
(assert (not (= (_ bv7 8) x85)))
(assert (not (= (_ bv7 8) (_ bv1 8))))
(assert (not (= (_ bv7 8) x87)))
(assert (not (= (_ bv7 8) x88)))
(assert (not (= x81 (_ bv5 8))))
(assert (not (= x81 x83)))
(assert (not (= x81 (_ bv8 8))))
(assert (not (= x81 x85)))
(assert (not (= x81 (_ bv1 8))))
(assert (not (= x81 x87)))
(assert (not (= x81 x88)))
(assert (not (= (_ bv5 8) x83)))
(assert (not (= (_ bv5 8) (_ bv8 8))))
(assert (not (= (_ bv5 8) x85)))
(assert (not (= (_ bv5 8) (_ bv1 8))))
(assert (not (= (_ bv5 8) x87)))
(assert (not (= (_ bv5 8) x88)))
(assert (not (= x83 (_ bv8 8))))
(assert (not (= x83 x85)))
(assert (not (= x83 (_ bv1 8))))
(assert (not (= x83 x87)))
(assert (not (= x83 x88)))
(assert (not (= (_ bv8 8) x85)))
(assert (not (= (_ bv8 8) (_ bv1 8))))
(assert (not (= (_ bv8 8) x87)))
(assert (not (= (_ bv8 8) x88)))
(assert (not (= x85 (_ bv1 8))))
(assert (not (= x85 x87)))
(assert (not (= x85 x88)))
(assert (not (= (_ bv1 8) x87)))
(assert (not (= (_ bv1 8) x88)))
(assert (not (= x87 x88)))
(assert (not (= x00 x10)))
(assert (not (= x00 x20)))
(assert (not (= x00 (_ bv5 8))))
(assert (not (= x00 x40)))
(assert (not (= x00 x50)))
(assert (not (= x00 x60)))
(assert (not (= x00 (_ bv2 8))))
(assert (not (= x00 (_ bv7 8))))
(assert (not (= x10 x20)))
(assert (not (= x10 (_ bv5 8))))
(assert (not (= x10 x40)))
(assert (not (= x10 x50)))
(assert (not (= x10 x60)))
(assert (not (= x10 (_ bv2 8))))
(assert (not (= x10 (_ bv7 8))))
(assert (not (= x20 (_ bv5 8))))
(assert (not (= x20 x40)))
(assert (not (= x20 x50)))
(assert (not (= x20 x60)))
(assert (not (= x20 (_ bv2 8))))
(assert (not (= x20 (_ bv7 8))))
(assert (not (= (_ bv5 8) x40)))
(assert (not (= (_ bv5 8) x50)))
(assert (not (= (_ bv5 8) x60)))
(assert (not (= (_ bv5 8) (_ bv2 8))))
(assert (not (= (_ bv5 8) (_ bv7 8))))
(assert (not (= x40 x50)))
(assert (not (= x40 x60)))
(assert (not (= x40 (_ bv2 8))))
(assert (not (= x40 (_ bv7 8))))
(assert (not (= x50 x60)))
(assert (not (= x50 (_ bv2 8))))
(assert (not (= x50 (_ bv7 8))))
(assert (not (= x60 (_ bv2 8))))
(assert (not (= x60 (_ bv7 8))))
(assert (not (= (_ bv2 8) (_ bv7 8))))
(assert (not (= (_ bv1 8) x11)))
(assert (not (= (_ bv1 8) x21)))
(assert (not (= (_ bv1 8) (_ bv3 8))))
(assert (not (= (_ bv1 8) (_ bv7 8))))
(assert (not (= (_ bv1 8) x51)))
(assert (not (= (_ bv1 8) x61)))
(assert (not (= (_ bv1 8) x71)))
(assert (not (= (_ bv1 8) x81)))
(assert (not (= x11 x21)))
(assert (not (= x11 (_ bv3 8))))
(assert (not (= x11 (_ bv7 8))))
(assert (not (= x11 x51)))
(assert (not (= x11 x61)))
(assert (not (= x11 x71)))
(assert (not (= x11 x81)))
(assert (not (= x21 (_ bv3 8))))
(assert (not (= x21 (_ bv7 8))))
(assert (not (= x21 x51)))
(assert (not (= x21 x61)))
(assert (not (= x21 x71)))
(assert (not (= x21 x81)))
(assert (not (= (_ bv3 8) (_ bv7 8))))
(assert (not (= (_ bv3 8) x51)))
(assert (not (= (_ bv3 8) x61)))
(assert (not (= (_ bv3 8) x71)))
(assert (not (= (_ bv3 8) x81)))
(assert (not (= (_ bv7 8) x51)))
(assert (not (= (_ bv7 8) x61)))
(assert (not (= (_ bv7 8) x71)))
(assert (not (= (_ bv7 8) x81)))
(assert (not (= x51 x61)))
(assert (not (= x51 x71)))
(assert (not (= x51 x81)))
(assert (not (= x61 x71)))
(assert (not (= x61 x81)))
(assert (not (= x71 x81)))
(assert (not (= x02 (_ bv8 8))))
(assert (not (= x02 (_ bv9 8))))
(assert (not (= x02 x32)))
(assert (not (= x02 x42)))
(assert (not (= x02 (_ bv4 8))))
(assert (not (= x02 (_ bv6 8))))
(assert (not (= x02 x72)))
(assert (not (= x02 (_ bv5 8))))
(assert (not (= (_ bv8 8) (_ bv9 8))))
(assert (not (= (_ bv8 8) x32)))
(assert (not (= (_ bv8 8) x42)))
(assert (not (= (_ bv8 8) (_ bv4 8))))
(assert (not (= (_ bv8 8) (_ bv6 8))))
(assert (not (= (_ bv8 8) x72)))
(assert (not (= (_ bv8 8) (_ bv5 8))))
(assert (not (= (_ bv9 8) x32)))
(assert (not (= (_ bv9 8) x42)))
(assert (not (= (_ bv9 8) (_ bv4 8))))
(assert (not (= (_ bv9 8) (_ bv6 8))))
(assert (not (= (_ bv9 8) x72)))
(assert (not (= (_ bv9 8) (_ bv5 8))))
(assert (not (= x32 x42)))
(assert (not (= x32 (_ bv4 8))))
(assert (not (= x32 (_ bv6 8))))
(assert (not (= x32 x72)))
(assert (not (= x32 (_ bv5 8))))
(assert (not (= x42 (_ bv4 8))))
(assert (not (= x42 (_ bv6 8))))
(assert (not (= x42 x72)))
(assert (not (= x42 (_ bv5 8))))
(assert (not (= (_ bv4 8) (_ bv6 8))))
(assert (not (= (_ bv4 8) x72)))
(assert (not (= (_ bv4 8) (_ bv5 8))))
(assert (not (= (_ bv6 8) x72)))
(assert (not (= (_ bv6 8) (_ bv5 8))))
(assert (not (= x72 (_ bv5 8))))
(assert (not (= (_ bv2 8) x13)))
(assert (not (= (_ bv2 8) (_ bv6 8))))
(assert (not (= (_ bv2 8) x33)))
(assert (not (= (_ bv2 8) (_ bv9 8))))
(assert (not (= (_ bv2 8) x53)))
(assert (not (= (_ bv2 8) x63)))
(assert (not (= (_ bv2 8) (_ bv5 8))))
(assert (not (= (_ bv2 8) x83)))
(assert (not (= x13 (_ bv6 8))))
(assert (not (= x13 x33)))
(assert (not (= x13 (_ bv9 8))))
(assert (not (= x13 x53)))
(assert (not (= x13 x63)))
(assert (not (= x13 (_ bv5 8))))
(assert (not (= x13 x83)))
(assert (not (= (_ bv6 8) x33)))
(assert (not (= (_ bv6 8) (_ bv9 8))))
(assert (not (= (_ bv6 8) x53)))
(assert (not (= (_ bv6 8) x63)))
(assert (not (= (_ bv6 8) (_ bv5 8))))
(assert (not (= (_ bv6 8) x83)))
(assert (not (= x33 (_ bv9 8))))
(assert (not (= x33 x53)))
(assert (not (= x33 x63)))
(assert (not (= x33 (_ bv5 8))))
(assert (not (= x33 x83)))
(assert (not (= (_ bv9 8) x53)))
(assert (not (= (_ bv9 8) x63)))
(assert (not (= (_ bv9 8) (_ bv5 8))))
(assert (not (= (_ bv9 8) x83)))
(assert (not (= x53 x63)))
(assert (not (= x53 (_ bv5 8))))
(assert (not (= x53 x83)))
(assert (not (= x63 (_ bv5 8))))
(assert (not (= x63 x83)))
(assert (not (= (_ bv5 8) x83)))
(assert (not (= x04 x14)))
(assert (not (= x04 x24)))
(assert (not (= x04 (_ bv4 8))))
(assert (not (= x04 (_ bv2 8))))
(assert (not (= x04 (_ bv3 8))))
(assert (not (= x04 x64)))
(assert (not (= x04 x74)))
(assert (not (= x04 (_ bv8 8))))
(assert (not (= x14 x24)))
(assert (not (= x14 (_ bv4 8))))
(assert (not (= x14 (_ bv2 8))))
(assert (not (= x14 (_ bv3 8))))
(assert (not (= x14 x64)))
(assert (not (= x14 x74)))
(assert (not (= x14 (_ bv8 8))))
(assert (not (= x24 (_ bv4 8))))
(assert (not (= x24 (_ bv2 8))))
(assert (not (= x24 (_ bv3 8))))
(assert (not (= x24 x64)))
(assert (not (= x24 x74)))
(assert (not (= x24 (_ bv8 8))))
(assert (not (= (_ bv4 8) (_ bv2 8))))
(assert (not (= (_ bv4 8) (_ bv3 8))))
(assert (not (= (_ bv4 8) x64)))
(assert (not (= (_ bv4 8) x74)))
(assert (not (= (_ bv4 8) (_ bv8 8))))
(assert (not (= (_ bv2 8) (_ bv3 8))))
(assert (not (= (_ bv2 8) x64)))
(assert (not (= (_ bv2 8) x74)))
(assert (not (= (_ bv2 8) (_ bv8 8))))
(assert (not (= (_ bv3 8) x64)))
(assert (not (= (_ bv3 8) x74)))
(assert (not (= (_ bv3 8) (_ bv8 8))))
(assert (not (= x64 x74)))
(assert (not (= x64 (_ bv8 8))))
(assert (not (= x74 (_ bv8 8))))
(assert (not (= x05 (_ bv9 8))))
(assert (not (= x05 (_ bv4 8))))
(assert (not (= x05 x35)))
(assert (not (= x05 x45)))
(assert (not (= x05 x55)))
(assert (not (= x05 x65)))
(assert (not (= x05 (_ bv1 8))))
(assert (not (= x05 x85)))
(assert (not (= (_ bv9 8) (_ bv4 8))))
(assert (not (= (_ bv9 8) x35)))
(assert (not (= (_ bv9 8) x45)))
(assert (not (= (_ bv9 8) x55)))
(assert (not (= (_ bv9 8) x65)))
(assert (not (= (_ bv9 8) (_ bv1 8))))
(assert (not (= (_ bv9 8) x85)))
(assert (not (= (_ bv4 8) x35)))
(assert (not (= (_ bv4 8) x45)))
(assert (not (= (_ bv4 8) x55)))
(assert (not (= (_ bv4 8) x65)))
(assert (not (= (_ bv4 8) (_ bv1 8))))
(assert (not (= (_ bv4 8) x85)))
(assert (not (= x35 x45)))
(assert (not (= x35 x55)))
(assert (not (= x35 x65)))
(assert (not (= x35 (_ bv1 8))))
(assert (not (= x35 x85)))
(assert (not (= x45 x55)))
(assert (not (= x45 x65)))
(assert (not (= x45 (_ bv1 8))))
(assert (not (= x45 x85)))
(assert (not (= x55 x65)))
(assert (not (= x55 (_ bv1 8))))
(assert (not (= x55 x85)))
(assert (not (= x65 (_ bv1 8))))
(assert (not (= x65 x85)))
(assert (not (= (_ bv1 8) x85)))
(assert (not (= x06 (_ bv6 8))))
(assert (not (= x06 x26)))
(assert (not (= x06 x36)))
(assert (not (= x06 x46)))
(assert (not (= x06 x56)))
(assert (not (= x06 x66)))
(assert (not (= x06 (_ bv7 8))))
(assert (not (= x06 (_ bv1 8))))
(assert (not (= (_ bv6 8) x26)))
(assert (not (= (_ bv6 8) x36)))
(assert (not (= (_ bv6 8) x46)))
(assert (not (= (_ bv6 8) x56)))
(assert (not (= (_ bv6 8) x66)))
(assert (not (= (_ bv6 8) (_ bv7 8))))
(assert (not (= (_ bv6 8) (_ bv1 8))))
(assert (not (= x26 x36)))
(assert (not (= x26 x46)))
(assert (not (= x26 x56)))
(assert (not (= x26 x66)))
(assert (not (= x26 (_ bv7 8))))
(assert (not (= x26 (_ bv1 8))))
(assert (not (= x36 x46)))
(assert (not (= x36 x56)))
(assert (not (= x36 x66)))
(assert (not (= x36 (_ bv7 8))))
(assert (not (= x36 (_ bv1 8))))
(assert (not (= x46 x56)))
(assert (not (= x46 x66)))
(assert (not (= x46 (_ bv7 8))))
(assert (not (= x46 (_ bv1 8))))
(assert (not (= x56 x66)))
(assert (not (= x56 (_ bv7 8))))
(assert (not (= x56 (_ bv1 8))))
(assert (not (= x66 (_ bv7 8))))
(assert (not (= x66 (_ bv1 8))))
(assert (not (= (_ bv7 8) (_ bv1 8))))
(assert (not (= (_ bv3 8) x17)))
(assert (not (= (_ bv3 8) (_ bv5 8))))
(assert (not (= (_ bv3 8) x37)))
(assert (not (= (_ bv3 8) x47)))
(assert (not (= (_ bv3 8) (_ bv8 8))))
(assert (not (= (_ bv3 8) x67)))
(assert (not (= (_ bv3 8) (_ bv9 8))))
(assert (not (= (_ bv3 8) x87)))
(assert (not (= x17 (_ bv5 8))))
(assert (not (= x17 x37)))
(assert (not (= x17 x47)))
(assert (not (= x17 (_ bv8 8))))
(assert (not (= x17 x67)))
(assert (not (= x17 (_ bv9 8))))
(assert (not (= x17 x87)))
(assert (not (= (_ bv5 8) x37)))
(assert (not (= (_ bv5 8) x47)))
(assert (not (= (_ bv5 8) (_ bv8 8))))
(assert (not (= (_ bv5 8) x67)))
(assert (not (= (_ bv5 8) (_ bv9 8))))
(assert (not (= (_ bv5 8) x87)))
(assert (not (= x37 x47)))
(assert (not (= x37 (_ bv8 8))))
(assert (not (= x37 x67)))
(assert (not (= x37 (_ bv9 8))))
(assert (not (= x37 x87)))
(assert (not (= x47 (_ bv8 8))))
(assert (not (= x47 x67)))
(assert (not (= x47 (_ bv9 8))))
(assert (not (= x47 x87)))
(assert (not (= (_ bv8 8) x67)))
(assert (not (= (_ bv8 8) (_ bv9 8))))
(assert (not (= (_ bv8 8) x87)))
(assert (not (= x67 (_ bv9 8))))
(assert (not (= x67 x87)))
(assert (not (= (_ bv9 8) x87)))
(assert (not (= x08 (_ bv2 8))))
(assert (not (= x08 (_ bv7 8))))
(assert (not (= x08 x38)))
(assert (not (= x08 (_ bv6 8))))
(assert (not (= x08 x58)))
(assert (not (= x08 (_ bv4 8))))
(assert (not (= x08 x78)))
(assert (not (= x08 x88)))
(assert (not (= (_ bv2 8) (_ bv7 8))))
(assert (not (= (_ bv2 8) x38)))
(assert (not (= (_ bv2 8) (_ bv6 8))))
(assert (not (= (_ bv2 8) x58)))
(assert (not (= (_ bv2 8) (_ bv4 8))))
(assert (not (= (_ bv2 8) x78)))
(assert (not (= (_ bv2 8) x88)))
(assert (not (= (_ bv7 8) x38)))
(assert (not (= (_ bv7 8) (_ bv6 8))))
(assert (not (= (_ bv7 8) x58)))
(assert (not (= (_ bv7 8) (_ bv4 8))))
(assert (not (= (_ bv7 8) x78)))
(assert (not (= (_ bv7 8) x88)))
(assert (not (= x38 (_ bv6 8))))
(assert (not (= x38 x58)))
(assert (not (= x38 (_ bv4 8))))
(assert (not (= x38 x78)))
(assert (not (= x38 x88)))
(assert (not (= (_ bv6 8) x58)))
(assert (not (= (_ bv6 8) (_ bv4 8))))
(assert (not (= (_ bv6 8) x78)))
(assert (not (= (_ bv6 8) x88)))
(assert (not (= x58 (_ bv4 8))))
(assert (not (= x58 x78)))
(assert (not (= x58 x88)))
(assert (not (= (_ bv4 8) x78)))
(assert (not (= (_ bv4 8) x88)))
(assert (not (= x78 x88)))
(assert (not (= x00 (_ bv1 8))))
(assert (not (= x00 x02)))
(assert (not (= x00 x10)))
(assert (not (= x00 x11)))
(assert (not (= x00 (_ bv8 8))))
(assert (not (= x00 x20)))
(assert (not (= x00 x21)))
(assert (not (= x00 (_ bv9 8))))
(assert (not (= (_ bv1 8) x02)))
(assert (not (= (_ bv1 8) x10)))
(assert (not (= (_ bv1 8) x11)))
(assert (not (= (_ bv1 8) (_ bv8 8))))
(assert (not (= (_ bv1 8) x20)))
(assert (not (= (_ bv1 8) x21)))
(assert (not (= (_ bv1 8) (_ bv9 8))))
(assert (not (= x02 x10)))
(assert (not (= x02 x11)))
(assert (not (= x02 (_ bv8 8))))
(assert (not (= x02 x20)))
(assert (not (= x02 x21)))
(assert (not (= x02 (_ bv9 8))))
(assert (not (= x10 x11)))
(assert (not (= x10 (_ bv8 8))))
(assert (not (= x10 x20)))
(assert (not (= x10 x21)))
(assert (not (= x10 (_ bv9 8))))
(assert (not (= x11 (_ bv8 8))))
(assert (not (= x11 x20)))
(assert (not (= x11 x21)))
(assert (not (= x11 (_ bv9 8))))
(assert (not (= (_ bv8 8) x20)))
(assert (not (= (_ bv8 8) x21)))
(assert (not (= (_ bv8 8) (_ bv9 8))))
(assert (not (= x20 x21)))
(assert (not (= x20 (_ bv9 8))))
(assert (not (= x21 (_ bv9 8))))
(assert (not (= (_ bv2 8) x04)))
(assert (not (= (_ bv2 8) x05)))
(assert (not (= (_ bv2 8) x13)))
(assert (not (= (_ bv2 8) x14)))
(assert (not (= (_ bv2 8) (_ bv9 8))))
(assert (not (= (_ bv2 8) (_ bv6 8))))
(assert (not (= (_ bv2 8) x24)))
(assert (not (= (_ bv2 8) (_ bv4 8))))
(assert (not (= x04 x05)))
(assert (not (= x04 x13)))
(assert (not (= x04 x14)))
(assert (not (= x04 (_ bv9 8))))
(assert (not (= x04 (_ bv6 8))))
(assert (not (= x04 x24)))
(assert (not (= x04 (_ bv4 8))))
(assert (not (= x05 x13)))
(assert (not (= x05 x14)))
(assert (not (= x05 (_ bv9 8))))
(assert (not (= x05 (_ bv6 8))))
(assert (not (= x05 x24)))
(assert (not (= x05 (_ bv4 8))))
(assert (not (= x13 x14)))
(assert (not (= x13 (_ bv9 8))))
(assert (not (= x13 (_ bv6 8))))
(assert (not (= x13 x24)))
(assert (not (= x13 (_ bv4 8))))
(assert (not (= x14 (_ bv9 8))))
(assert (not (= x14 (_ bv6 8))))
(assert (not (= x14 x24)))
(assert (not (= x14 (_ bv4 8))))
(assert (not (= (_ bv9 8) (_ bv6 8))))
(assert (not (= (_ bv9 8) x24)))
(assert (not (= (_ bv9 8) (_ bv4 8))))
(assert (not (= (_ bv6 8) x24)))
(assert (not (= (_ bv6 8) (_ bv4 8))))
(assert (not (= x24 (_ bv4 8))))
(assert (not (= x06 (_ bv3 8))))
(assert (not (= x06 x08)))
(assert (not (= x06 (_ bv6 8))))
(assert (not (= x06 x17)))
(assert (not (= x06 (_ bv2 8))))
(assert (not (= x06 x26)))
(assert (not (= x06 (_ bv5 8))))
(assert (not (= x06 (_ bv7 8))))
(assert (not (= (_ bv3 8) x08)))
(assert (not (= (_ bv3 8) (_ bv6 8))))
(assert (not (= (_ bv3 8) x17)))
(assert (not (= (_ bv3 8) (_ bv2 8))))
(assert (not (= (_ bv3 8) x26)))
(assert (not (= (_ bv3 8) (_ bv5 8))))
(assert (not (= (_ bv3 8) (_ bv7 8))))
(assert (not (= x08 (_ bv6 8))))
(assert (not (= x08 x17)))
(assert (not (= x08 (_ bv2 8))))
(assert (not (= x08 x26)))
(assert (not (= x08 (_ bv5 8))))
(assert (not (= x08 (_ bv7 8))))
(assert (not (= (_ bv6 8) x17)))
(assert (not (= (_ bv6 8) (_ bv2 8))))
(assert (not (= (_ bv6 8) x26)))
(assert (not (= (_ bv6 8) (_ bv5 8))))
(assert (not (= (_ bv6 8) (_ bv7 8))))
(assert (not (= x17 (_ bv2 8))))
(assert (not (= x17 x26)))
(assert (not (= x17 (_ bv5 8))))
(assert (not (= x17 (_ bv7 8))))
(assert (not (= (_ bv2 8) x26)))
(assert (not (= (_ bv2 8) (_ bv5 8))))
(assert (not (= (_ bv2 8) (_ bv7 8))))
(assert (not (= x26 (_ bv5 8))))
(assert (not (= x26 (_ bv7 8))))
(assert (not (= (_ bv5 8) (_ bv7 8))))
(assert (not (= (_ bv5 8) (_ bv3 8))))
(assert (not (= (_ bv5 8) x32)))
(assert (not (= (_ bv5 8) x40)))
(assert (not (= (_ bv5 8) (_ bv7 8))))
(assert (not (= (_ bv5 8) x42)))
(assert (not (= (_ bv5 8) x50)))
(assert (not (= (_ bv5 8) x51)))
(assert (not (= (_ bv5 8) (_ bv4 8))))
(assert (not (= (_ bv3 8) x32)))
(assert (not (= (_ bv3 8) x40)))
(assert (not (= (_ bv3 8) (_ bv7 8))))
(assert (not (= (_ bv3 8) x42)))
(assert (not (= (_ bv3 8) x50)))
(assert (not (= (_ bv3 8) x51)))
(assert (not (= (_ bv3 8) (_ bv4 8))))
(assert (not (= x32 x40)))
(assert (not (= x32 (_ bv7 8))))
(assert (not (= x32 x42)))
(assert (not (= x32 x50)))
(assert (not (= x32 x51)))
(assert (not (= x32 (_ bv4 8))))
(assert (not (= x40 (_ bv7 8))))
(assert (not (= x40 x42)))
(assert (not (= x40 x50)))
(assert (not (= x40 x51)))
(assert (not (= x40 (_ bv4 8))))
(assert (not (= (_ bv7 8) x42)))
(assert (not (= (_ bv7 8) x50)))
(assert (not (= (_ bv7 8) x51)))
(assert (not (= (_ bv7 8) (_ bv4 8))))
(assert (not (= x42 x50)))
(assert (not (= x42 x51)))
(assert (not (= x42 (_ bv4 8))))
(assert (not (= x50 x51)))
(assert (not (= x50 (_ bv4 8))))
(assert (not (= x51 (_ bv4 8))))
(assert (not (= x33 (_ bv4 8))))
(assert (not (= x33 x35)))
(assert (not (= x33 (_ bv9 8))))
(assert (not (= x33 (_ bv2 8))))
(assert (not (= x33 x45)))
(assert (not (= x33 x53)))
(assert (not (= x33 (_ bv3 8))))
(assert (not (= x33 x55)))
(assert (not (= (_ bv4 8) x35)))
(assert (not (= (_ bv4 8) (_ bv9 8))))
(assert (not (= (_ bv4 8) (_ bv2 8))))
(assert (not (= (_ bv4 8) x45)))
(assert (not (= (_ bv4 8) x53)))
(assert (not (= (_ bv4 8) (_ bv3 8))))
(assert (not (= (_ bv4 8) x55)))
(assert (not (= x35 (_ bv9 8))))
(assert (not (= x35 (_ bv2 8))))
(assert (not (= x35 x45)))
(assert (not (= x35 x53)))
(assert (not (= x35 (_ bv3 8))))
(assert (not (= x35 x55)))
(assert (not (= (_ bv9 8) (_ bv2 8))))
(assert (not (= (_ bv9 8) x45)))
(assert (not (= (_ bv9 8) x53)))
(assert (not (= (_ bv9 8) (_ bv3 8))))
(assert (not (= (_ bv9 8) x55)))
(assert (not (= (_ bv2 8) x45)))
(assert (not (= (_ bv2 8) x53)))
(assert (not (= (_ bv2 8) (_ bv3 8))))
(assert (not (= (_ bv2 8) x55)))
(assert (not (= x45 x53)))
(assert (not (= x45 (_ bv3 8))))
(assert (not (= x45 x55)))
(assert (not (= x53 (_ bv3 8))))
(assert (not (= x53 x55)))
(assert (not (= (_ bv3 8) x55)))
(assert (not (= x36 x37)))
(assert (not (= x36 x38)))
(assert (not (= x36 x46)))
(assert (not (= x36 x47)))
(assert (not (= x36 (_ bv6 8))))
(assert (not (= x36 x56)))
(assert (not (= x36 (_ bv8 8))))
(assert (not (= x36 x58)))
(assert (not (= x37 x38)))
(assert (not (= x37 x46)))
(assert (not (= x37 x47)))
(assert (not (= x37 (_ bv6 8))))
(assert (not (= x37 x56)))
(assert (not (= x37 (_ bv8 8))))
(assert (not (= x37 x58)))
(assert (not (= x38 x46)))
(assert (not (= x38 x47)))
(assert (not (= x38 (_ bv6 8))))
(assert (not (= x38 x56)))
(assert (not (= x38 (_ bv8 8))))
(assert (not (= x38 x58)))
(assert (not (= x46 x47)))
(assert (not (= x46 (_ bv6 8))))
(assert (not (= x46 x56)))
(assert (not (= x46 (_ bv8 8))))
(assert (not (= x46 x58)))
(assert (not (= x47 (_ bv6 8))))
(assert (not (= x47 x56)))
(assert (not (= x47 (_ bv8 8))))
(assert (not (= x47 x58)))
(assert (not (= (_ bv6 8) x56)))
(assert (not (= (_ bv6 8) (_ bv8 8))))
(assert (not (= (_ bv6 8) x58)))
(assert (not (= x56 (_ bv8 8))))
(assert (not (= x56 x58)))
(assert (not (= (_ bv8 8) x58)))
(assert (not (= x60 x61)))
(assert (not (= x60 (_ bv6 8))))
(assert (not (= x60 (_ bv2 8))))
(assert (not (= x60 x71)))
(assert (not (= x60 x72)))
(assert (not (= x60 (_ bv7 8))))
(assert (not (= x60 x81)))
(assert (not (= x60 (_ bv5 8))))
(assert (not (= x61 (_ bv6 8))))
(assert (not (= x61 (_ bv2 8))))
(assert (not (= x61 x71)))
(assert (not (= x61 x72)))
(assert (not (= x61 (_ bv7 8))))
(assert (not (= x61 x81)))
(assert (not (= x61 (_ bv5 8))))
(assert (not (= (_ bv6 8) (_ bv2 8))))
(assert (not (= (_ bv6 8) x71)))
(assert (not (= (_ bv6 8) x72)))
(assert (not (= (_ bv6 8) (_ bv7 8))))
(assert (not (= (_ bv6 8) x81)))
(assert (not (= (_ bv6 8) (_ bv5 8))))
(assert (not (= (_ bv2 8) x71)))
(assert (not (= (_ bv2 8) x72)))
(assert (not (= (_ bv2 8) (_ bv7 8))))
(assert (not (= (_ bv2 8) x81)))
(assert (not (= (_ bv2 8) (_ bv5 8))))
(assert (not (= x71 x72)))
(assert (not (= x71 (_ bv7 8))))
(assert (not (= x71 x81)))
(assert (not (= x71 (_ bv5 8))))
(assert (not (= x72 (_ bv7 8))))
(assert (not (= x72 x81)))
(assert (not (= x72 (_ bv5 8))))
(assert (not (= (_ bv7 8) x81)))
(assert (not (= (_ bv7 8) (_ bv5 8))))
(assert (not (= x81 (_ bv5 8))))
(assert (not (= x63 x64)))
(assert (not (= x63 x65)))
(assert (not (= x63 (_ bv5 8))))
(assert (not (= x63 x74)))
(assert (not (= x63 (_ bv1 8))))
(assert (not (= x63 x83)))
(assert (not (= x63 (_ bv8 8))))
(assert (not (= x63 x85)))
(assert (not (= x64 x65)))
(assert (not (= x64 (_ bv5 8))))
(assert (not (= x64 x74)))
(assert (not (= x64 (_ bv1 8))))
(assert (not (= x64 x83)))
(assert (not (= x64 (_ bv8 8))))
(assert (not (= x64 x85)))
(assert (not (= x65 (_ bv5 8))))
(assert (not (= x65 x74)))
(assert (not (= x65 (_ bv1 8))))
(assert (not (= x65 x83)))
(assert (not (= x65 (_ bv8 8))))
(assert (not (= x65 x85)))
(assert (not (= (_ bv5 8) x74)))
(assert (not (= (_ bv5 8) (_ bv1 8))))
(assert (not (= (_ bv5 8) x83)))
(assert (not (= (_ bv5 8) (_ bv8 8))))
(assert (not (= (_ bv5 8) x85)))
(assert (not (= x74 (_ bv1 8))))
(assert (not (= x74 x83)))
(assert (not (= x74 (_ bv8 8))))
(assert (not (= x74 x85)))
(assert (not (= (_ bv1 8) x83)))
(assert (not (= (_ bv1 8) (_ bv8 8))))
(assert (not (= (_ bv1 8) x85)))
(assert (not (= x83 (_ bv8 8))))
(assert (not (= x83 x85)))
(assert (not (= (_ bv8 8) x85)))
(assert (not (= x66 x67)))
(assert (not (= x66 (_ bv4 8))))
(assert (not (= x66 (_ bv7 8))))
(assert (not (= x66 (_ bv9 8))))
(assert (not (= x66 x78)))
(assert (not (= x66 (_ bv1 8))))
(assert (not (= x66 x87)))
(assert (not (= x66 x88)))
(assert (not (= x67 (_ bv4 8))))
(assert (not (= x67 (_ bv7 8))))
(assert (not (= x67 (_ bv9 8))))
(assert (not (= x67 x78)))
(assert (not (= x67 (_ bv1 8))))
(assert (not (= x67 x87)))
(assert (not (= x67 x88)))
(assert (not (= (_ bv4 8) (_ bv7 8))))
(assert (not (= (_ bv4 8) (_ bv9 8))))
(assert (not (= (_ bv4 8) x78)))
(assert (not (= (_ bv4 8) (_ bv1 8))))
(assert (not (= (_ bv4 8) x87)))
(assert (not (= (_ bv4 8) x88)))
(assert (not (= (_ bv7 8) (_ bv9 8))))
(assert (not (= (_ bv7 8) x78)))
(assert (not (= (_ bv7 8) (_ bv1 8))))
(assert (not (= (_ bv7 8) x87)))
(assert (not (= (_ bv7 8) x88)))
(assert (not (= (_ bv9 8) x78)))
(assert (not (= (_ bv9 8) (_ bv1 8))))
(assert (not (= (_ bv9 8) x87)))
(assert (not (= (_ bv9 8) x88)))
(assert (not (= x78 (_ bv1 8))))
(assert (not (= x78 x87)))
(assert (not (= x78 x88)))
(assert (not (= (_ bv1 8) x87)))
(assert (not (= (_ bv1 8) x88)))
(assert (not (= x87 x88)))
(check-sat)
(exit)
